
  16    0


   0   8 2 3 4 5 12 13 14 15 
   8   4 11 10 7 6 
   2   3 9 7 6 
   9   1 8 
   7   1 6 
   8   1 16
   5   1 16
   6   1 16
   5   1 16
   6   1 16
   1   1 16
   1   1 16
   5   1 16
   5   1 16
   7   1 16
   0   0 
